SAT/4279348_12.param
$ LBS instance with n = 12, seed = 4279348
letting cards be [12,18,22,9,37,16,3,4,2,32,30,11]
